
Gurobi 11.0.0 (linux64) logging started Mon Apr 15 09:08:16 2024

Set parameter LogFile to value "/lustre1/scratch/348/vsc34888/JointResearch/05.Models/06.Benchmarking/L.Cont_Investments_per_hour/RTS24_ByStages_nc90/openStarNet_RTS24_ByStages_nc90.log"
Set parameter Method to value 2
Set parameter MIPFocus to value 1
Set parameter Presolve to value 2
Set parameter RINS to value 100
Set parameter MIPGap to value 0.01
Set parameter Threads to value 36
Set parameter TimeLimit to value 259200
Set parameter IterationLimit to value 760000000
Gurobi Optimizer version 11.0.0 build v11.0.0rc2 (linux64 - "Rocky Linux 8.8 (Green Obsidian)")

CPU model: Intel(R) Xeon(R) Gold 6140 CPU @ 2.30GHz, instruction set [SSE2|AVX|AVX2|AVX512]
Thread count: 36 physical cores, 36 logical processors, using up to 36 threads

Optimize a model with 35013 rows, 21079 columns and 93836 nonzeros
Model fingerprint: 0x6620b9e4
Variable types: 21049 continuous, 30 integer (30 binary)
Coefficient statistics:
  Matrix range     [3e-02, 4e+02]
  Objective range  [1e+00, 1e+00]
  Bounds range     [4e-04, 3e+00]
  RHS range        [4e-04, 3e+00]
Presolve removed 18786 rows and 9949 columns
Presolve time: 0.22s
Presolved: 16227 rows, 11130 columns, 57207 nonzeros
Variable types: 11100 continuous, 30 integer (30 binary)
Found heuristic solution: objective 329.7443740
Root relaxation presolved: 16227 rows, 11130 columns, 57207 nonzeros

Root barrier log...

Ordering time: 0.01s

Barrier statistics:
 Dense cols : 30
 AA' NZ     : 1.200e+05
 Factor NZ  : 3.128e+05 (roughly 14 MB of memory)
 Factor Ops : 6.661e+06 (less than 1 second per iteration)
 Threads    : 36

                  Objective                Residual
Iter       Primal          Dual         Primal    Dual     Compl     Time
   0   7.98188890e+05 -4.49486488e+07  6.88e+00 1.33e+02  3.83e+03     0s
   1   1.35338022e+05 -1.30118855e+07  9.48e-01 1.97e-09  5.68e+02     0s
   2   4.67470740e+04 -1.94018873e+06  1.68e-01 8.77e-10  6.90e+01     0s
   3   1.66353669e+04 -2.80482436e+05  1.23e-13 3.99e-10  8.68e+00     0s
   4   4.10476421e+03 -2.20018281e+04  1.23e-13 2.22e-11  7.63e-01     0s
   5   6.46552314e+02 -4.25821158e+03  9.86e-13 4.31e-12  1.43e-01     0s
   6   4.99457045e+02 -1.03927872e+03  2.71e-13 1.10e-12  4.50e-02     0s
   7   3.69212079e+02 -3.28854856e+02  1.78e-13 4.55e-13  2.04e-02     1s
   8   2.93151959e+02 -1.08521775e+01  1.68e-13 4.55e-13  8.88e-03     1s
   9   2.49452236e+02  5.79577163e+01  1.73e-13 4.55e-13  5.59e-03     1s
  10   2.36706351e+02  1.09705645e+02  1.70e-13 4.55e-13  3.71e-03     1s
  11   2.08766287e+02  1.28453091e+02  3.75e-13 9.09e-13  2.35e-03     1s
  12   1.97183531e+02  1.53976500e+02  1.42e-12 4.55e-13  1.26e-03     1s
  13   1.89406927e+02  1.67246672e+02  1.04e-12 9.09e-13  6.47e-04     1s
  14   1.86283237e+02  1.72830699e+02  1.72e-12 4.55e-13  3.93e-04     1s
  15   1.83968689e+02  1.75998524e+02  2.25e-12 4.55e-13  2.33e-04     1s
  16   1.82741661e+02  1.78357230e+02  5.20e-12 4.55e-13  1.28e-04     1s
  17   1.81875730e+02  1.79183299e+02  4.76e-12 4.55e-13  7.87e-05     1s
  18   1.81232044e+02  1.80028349e+02  4.44e-12 4.55e-13  3.52e-05     1s
  19   1.80829168e+02  1.80299805e+02  9.60e-12 9.09e-13  1.55e-05     1s
  20   1.80592939e+02  1.80453017e+02  4.26e-11 9.09e-13  4.09e-06     1s
  21   1.80523666e+02  1.80487551e+02  8.74e-11 4.55e-13  1.06e-06     1s
  22   1.80508781e+02  1.80503119e+02  7.29e-11 4.80e-13  1.65e-07     1s
  23   1.80508600e+02  1.80507524e+02  5.25e-11 4.55e-13  3.14e-08     1s
  24   1.80508322e+02  1.80508184e+02  5.28e-11 4.55e-13  4.02e-09     1s
  25   1.80508293e+02  1.80508270e+02  2.58e-10 1.02e-11  6.54e-10     1s
  26   1.80508289e+02  1.80508289e+02  7.76e-11 1.17e-12  2.69e-12     1s

Barrier solved model in 26 iterations and 0.68 seconds (0.65 work units)
Optimal objective 1.80508289e+02


Root relaxation: objective 1.805083e+02, 2294 iterations, 0.43 seconds (0.27 work units)

    Nodes    |    Current Node    |     Objective Bounds      |     Work
 Expl Unexpl |  Obj  Depth IntInf | Incumbent    BestBd   Gap | It/Node Time

     0     0  180.50829    0   21  329.74437  180.50829  45.3%     -    1s
H    0     0                     262.1902470  183.34225  30.1%     -    1s
     0     0  183.74689    0   22  262.19025  183.74689  29.9%     -    1s
     0     0  183.82470    0   21  262.19025  183.82470  29.9%     -    2s
     0     0  183.82470    0   21  262.19025  183.82470  29.9%     -    2s
     0     0  184.46978    0   15  262.19025  184.46978  29.6%     -    2s
     0     0  184.47130    0   16  262.19025  184.47130  29.6%     -    3s
     0     0  184.47138    0   16  262.19025  184.47138  29.6%     -    3s
     0     0  184.77303    0   20  262.19025  184.77303  29.5%     -    3s
     0     0  184.82709    0   17  262.19025  184.82709  29.5%     -    4s
     0     0  185.21317    0   18  262.19025  185.21317  29.4%     -    4s
     0     0  185.21317    0   17  262.19025  185.21317  29.4%     -    4s
     0     0  185.21317    0   17  262.19025  185.21317  29.4%     -    4s
     0     0  185.21317    0   16  262.19025  185.21317  29.4%     -    4s
     0     0  185.57262    0   16  262.19025  185.57262  29.2%     -    5s
H    0     0                     257.4084396  185.57262  27.9%     -    5s
     0     0  186.91856    0   16  257.40844  186.91856  27.4%     -    6s
H    0     0                     249.5965819  186.91856  25.1%     -    6s
H    0     0                     216.6474575  186.91856  13.7%     -   34s
     0     2  186.91856    0   16  216.64746  186.91856  13.7%     -   34s
     1     4  186.91856    1   15  216.64746  186.91856  13.7%   685   35s
H   98   126                     216.1898407  190.02390  12.1%   735   69s
H  100   126                     216.0030755  190.02390  12.0%   730   69s
H  105   126                     215.4636204  190.02390  11.8%   718   69s
   170   188  200.34010    9   15  215.46362  190.02390  11.8%   623   70s
   735   463  198.84354   10   13  215.46362  190.14403  11.8%   461   75s
  1164   545  207.56578   13   10  215.46362  190.14403  11.8%   426   94s
  1223   563  206.25411   12   11  215.46362  190.14403  11.8%   427   95s
  2200   693     cutoff   15       215.46362  191.61932  11.1%   383  138s
  2298   707     cutoff   15       215.46362  191.61932  11.1%   381  175s
  3463   919  207.12501   13   10  215.46362  196.39772  8.85%   358  180s
  4399  1082     cutoff   17       215.46362  196.39772  8.85%   338  224s
  4550  1180  214.64607   18    5  215.46362  197.74889  8.22%   336  225s
  6204  1453  212.68875   18    5  215.46362  205.11060  4.80%   313  230s
  7198  1621  212.89773   19    3  215.46362  205.87656  4.45%   300  266s
  8177  1772     cutoff   15       215.46362  206.34127  4.23%   290  312s
  8776  1857  208.76462   13    9  215.46362  206.63514  4.10%   286  333s
  9508  1966  213.76502   19    5  215.46362  206.99394  3.93%   280  335s
 10315  1967  210.27309   10   16  215.46362  207.64145  3.63%   274  366s
 10317  1968  211.62225   16   19  215.46362  207.64145  3.63%   274  370s
 10328  1976  210.78953   15   15  215.46362  207.64145  3.63%   273  375s
 10329  1976  210.19306   14   15  215.46362  207.64145  3.63%   273  399s
 10330  1980  207.64145   11   20  215.46362  207.64145  3.63%   275  400s
 10426  2066  207.64145   17   13  215.46362  207.64145  3.63%   280  430s
 10629  2131  207.64145   19   14  215.46362  207.64145  3.63%   283  443s
 10798  2156     cutoff   21       215.46362  207.64145  3.63%   285  478s
 11376  2106  207.84339   22    8  215.46362  207.64145  3.63%   288  480s
 13108  1799     cutoff   25       215.46362  207.64145  3.63%   287  485s
 15391  1263     cutoff   27       215.46362  207.64145  3.63%   278  513s
 16797   997  212.46886   23    9  215.46362  207.95826  3.48%   270  530s
 20452   845  214.24777   26    7  215.46362  210.47773  2.31%   253  535s

Cutting planes:
  Gomory: 3
  Implied bound: 979
  MIR: 479
  Flow cover: 659
  RLT: 18
  Relax-and-lift: 70

Explored 24083 nodes (5647083 simplex iterations) in 538.89 seconds (609.86 work units)
Thread count was 36 (of 36 available processors)

Solution count 8: 215.464 216.003 216.19 ... 329.744

Optimal solution found (tolerance 1.00e-02)
Best objective 2.154636204415e+02, best bound 2.135827273252e+02, gap 0.8730%

Gurobi 11.0.0 (linux64) logging started Mon Apr 15 09:17:20 2024

Set parameter LogFile to value "/lustre1/scratch/348/vsc34888/JointResearch/05.Models/06.Benchmarking/L.Cont_Investments_per_hour/RTS24_ByStages_nc90/openStarNet_RTS24_ByStages_nc90.log"
Set parameter Method to value 2
Set parameter MIPFocus to value 1
Set parameter Presolve to value 2
Set parameter RINS to value 100
Set parameter MIPGap to value 0.01
Set parameter Threads to value 36
Set parameter TimeLimit to value 259200
Set parameter IterationLimit to value 760000000
Gurobi Optimizer version 11.0.0 build v11.0.0rc2 (linux64 - "Rocky Linux 8.8 (Green Obsidian)")

CPU model: Intel(R) Xeon(R) Gold 6140 CPU @ 2.30GHz, instruction set [SSE2|AVX|AVX2|AVX512]
Thread count: 36 physical cores, 36 logical processors, using up to 36 threads

Optimize a model with 35013 rows, 21049 columns and 83006 nonzeros
Model fingerprint: 0x465637b6
Coefficient statistics:
  Matrix range     [3e-02, 4e+02]
  Objective range  [1e+00, 1e+00]
  Bounds range     [4e-04, 3e+00]
  RHS range        [4e-04, 5e+01]
Presolve removed 29904 rows and 12203 columns
Presolve time: 0.04s
Presolved: 5109 rows, 8892 columns, 22594 nonzeros

Ordering time: 0.00s

Barrier statistics:
 AA' NZ     : 1.167e+04
 Factor NZ  : 4.345e+04 (roughly 4 MB of memory)
 Factor Ops : 6.282e+05 (less than 1 second per iteration)
 Threads    : 1

                  Objective                Residual
Iter       Primal          Dual         Primal    Dual     Compl     Time
   0   3.15182235e+06 -4.14239063e+07  1.12e+01 1.33e+03  3.01e+04     0s
   1   2.24569442e+05 -2.81304651e+07  7.14e-01 1.96e-11  3.42e+03     0s
   2   7.64928743e+04 -7.94364719e+06  1.88e-01 3.07e-11  7.31e+02     0s
   3   3.81439370e+04 -1.61543900e+06  3.02e-02 1.46e-11  1.26e+02     0s
   4   2.47515427e+04 -2.57327670e+05  1.17e-05 1.82e-11  1.97e+01     0s
   5   1.22651213e+04 -7.70481989e+04  1.33e-06 7.28e-12  6.24e+00     0s
   6   4.20034498e+03 -1.19976684e+04  3.30e-07 3.64e-12  1.13e+00     0s
   7   5.53372431e+02 -1.29616440e+03  1.20e-10 5.46e-12  1.29e-01     0s
   8   4.06537917e+02 -2.00335159e+02  2.83e-11 3.64e-12  4.24e-02     0s
   9   2.99626605e+02  6.91994690e+01  9.45e-12 3.64e-12  1.61e-02     0s
  10   2.54536802e+02  1.58617503e+02  4.36e-12 3.64e-12  6.70e-03     0s
  11   2.34784258e+02  1.87261558e+02  2.65e-12 3.64e-12  3.32e-03     0s
  12   2.23531970e+02  2.05399060e+02  1.78e-12 3.64e-12  1.27e-03     0s
  13   2.17756673e+02  2.14031460e+02  3.63e-12 3.64e-12  2.60e-04     0s
  14   2.15544499e+02  2.15370577e+02  7.14e-11 3.64e-12  1.21e-05     0s
  15   2.15468990e+02  2.15459339e+02  1.34e-11 3.64e-12  6.74e-07     0s
  16   2.15463635e+02  2.15462975e+02  6.11e-11 7.28e-12  4.61e-08     0s
  17   2.15463623e+02  2.15463615e+02  1.29e-11 3.64e-12  6.17e-10     0s
  18   2.15463620e+02  2.15463620e+02  7.71e-12 3.64e-12  6.17e-13     0s

Barrier solved model in 18 iterations and 0.10 seconds (0.10 work units)
Optimal objective 2.15463620e+02

Crossover log...

    1034 DPushes remaining with DInf 0.0000000e+00                 0s
       0 DPushes remaining with DInf 0.0000000e+00                 0s

     243 PPushes remaining with PInf 0.0000000e+00                 0s
       0 PPushes remaining with PInf 0.0000000e+00                 0s

  Push phase complete: Pinf 0.0000000e+00, Dinf 1.3617744e-12      0s

Iteration    Objective       Primal Inf.    Dual Inf.      Time
     261    2.1546362e+02   0.000000e+00   0.000000e+00      0s

Use crossover to convert LP symmetric solution to basic solution...
Crossover log...

     140 PPushes remaining with PInf 0.0000000e+00                 0s
       0 PPushes remaining with PInf 0.0000000e+00                 0s

  Push phase complete: Pinf 0.0000000e+00, Dinf 1.5709633e-12      0s

Iteration    Objective       Primal Inf.    Dual Inf.      Time
     404    2.1546362e+02   0.000000e+00   0.000000e+00      0s

Solved in 404 iterations and 0.15 seconds (0.12 work units)
Optimal objective  2.154636204e+02
